48
Lattice="7.822 0.0 0.0 0.0 7.822 0.0 0.0 0.0 7.822" Properties=species:S:1:pos:R:3 ipi_comment="Step:      459000  Bead:       0 positions{ase}  cell{ase}" pbc="T T T"
O       -7.21063784      16.62218102       8.39502973
H       -8.00577942      17.17459880       8.19341199
H       -6.51475508      17.25667825       8.71051332
O        3.98942556      13.02711032      -3.01720143
H        4.45024460      13.81036196      -3.29140220
H        3.06478505      13.04481179      -3.35500993
O       -6.46326862       4.72715776       3.41624896
H       -6.83591236       3.90680019       3.97058543
H       -5.80449223       4.38124353       2.74673728
O        7.71106188       2.75904032       4.53766885
H        6.92619716       2.91282796       4.02270648
H        7.86737431       1.78315009       4.46858806
O       -4.98941436      -4.71093644      -6.46237056
H       -4.81102109      -4.23740604      -7.32233354
H       -4.09667441      -4.83484257      -6.13700930
O        2.28011157      -0.28367398      -1.20102346
H        1.66782954       0.14574449      -0.53680399
H        2.51655187      -1.12279295      -0.76364448
O       11.24209172       8.94728883      11.43049597
H       10.41103005       9.44732910      11.18066137
H       11.31751635       8.83605397      12.42288875
O        3.48624610      -2.74984268       7.58908547
H        3.85880325      -2.55585071       6.65029456
H        3.74234976      -2.07580240       8.22456654
O       16.08866962       0.03883646      12.41610110
H       16.21298390      -0.44754488      11.57286508
H       16.83231982      -0.17607366      13.02306608
O        4.43847310       1.56447689       6.70605522
H        4.95386787       1.90409180       7.49673205
H        3.79980043       0.88414288       7.00242715
O        5.83931857      -8.19419410      -2.48675038
H        5.55142074      -7.28703876      -2.09487549
H        6.77616956      -8.07611690      -2.70799762
O        4.27548976      -0.75745311       9.46466146
H        3.81805314      -0.04425390       9.96975205
H        5.13850659      -0.80971316       9.83742520
O       -1.03985557      12.72677588       6.63689145
H       -0.50603112      12.39730087       5.89447913
H       -1.41956898      13.53698462       6.25166303
O        6.02278506       2.97102897       0.46562095
H        5.88563707       3.36080580       1.37002389
H        6.09750564       3.68833809      -0.17816922
O        5.18498017      10.93000953      -4.63229398
H        4.79157421      11.72977606      -4.15021259
H        4.63510008      10.17752986      -4.22112690
O       -0.98775662      -1.85882295       2.00118662
H       -0.32106699      -2.56920173       2.28945633
H       -1.08091408      -2.09551121       0.99883484
