144
Lattice="10.0 0.0 0.0 0.0 10.0 0.0 0.0 0.0 100.0" Properties=species:S:1:pos:R:3 ipi_comment="Step:           0  Bead:       0 positions{ase}  cell{ase}" pbc="T T T"
O       17.21334931       1.18657729      21.71755971
H       16.56146530       0.86377310      21.09673500
H       17.04807776       0.66844191      22.52995425
O       16.91816219       5.80387525      20.93848539
H       16.33333845       6.31684322      21.55093080
H       16.72834619       5.01193203      21.42728275
O        0.40535318      11.19456329      30.62148488
H       -0.28144060      11.38140430      31.34606061
H       -0.19505819      11.14204177      29.78148045
O       10.18450573       5.00487889      27.29028318
H       10.85423792       5.09372828      28.03260747
H        9.81585132       5.91400762      27.16442654
O       13.60760357       4.23246949      20.60937901
H       12.88972288       4.42161959      21.18171038
H       14.40891036       4.05703885      21.12365086
O       -3.87484312       8.62539717      28.77473829
H       -4.33776939       9.14998326      28.03914283
H       -3.92823608       9.14900881      29.62306830
O       11.90528904      -4.71263727      29.48046050
H       12.58134655      -4.01199035      29.65964759
H       12.42867823      -5.53099670      29.71427027
O       -4.08708384       3.58725349      22.36248596
H       -3.93922233       3.51868018      23.34627437
H       -3.52364019       2.84482892      22.13437947
O        6.43744134       0.08106534      24.28123435
H        6.87516361      -0.76133267      24.41291096
H        5.52914056      -0.16360287      23.92194719
O       -0.33329717      10.20470396      26.02951426
H       -0.63255076      10.68886127      26.81044456
H       -0.19762043      10.97043915      25.39363383
O        3.74688950       1.75097663      34.54822771
H        3.45176986       2.49930743      33.90902750
H        3.46511856       2.09929353      35.42775081
O        4.60433165       9.90410511      26.78013247
H        3.89478934       9.34188944      26.42699083
H        5.10194937      10.29077845      26.01324243
O       12.45342393      -1.39500030      26.74729447
H       12.18508688      -2.30575980      26.32800067
H       11.57048999      -0.92921817      26.62304091
O       14.63924399      -8.02079248      28.73566445
H       14.97134192      -7.28098170      28.21253934
H       14.53532308      -8.80797865      28.09041687
O        0.23588340      11.28264281      21.86148643
H       -0.60581265      11.40977475      21.41743080
H        0.46370699      10.33293453      21.62400837
O        4.02999425       7.32440959      21.18220453
H        4.21690504       7.92894977      20.41865049
H        3.95404977       6.46352311      20.70713134
O        6.64334762       3.04102442      31.08138797
H        7.38136992       2.53969126      31.61463303
H        6.20637266       2.18851843      30.89337974
O        2.75953234       2.72520125      30.50856486
H        1.91062163       2.18558032      30.46973055
H        3.38019944       2.38484294      29.85782705
O        1.98851706       9.13048263      30.49821070
H        1.27823885       9.87264878      30.62337473
H        2.29559501       9.11930437      29.54464723
O       -1.34926110       2.09170976      32.65761875
H       -1.88714405       1.81098119      33.40588008
H       -0.70256726       2.78892116      32.87499810
O        9.48167629       8.34757538      33.89694559
H        9.28792367       9.32842949      33.94486284
H        9.12948118       8.19420661      32.98487131
O        2.89412127       1.43137500      20.95061712
H        1.93807557       1.33969908      21.18094294
H        3.05622927       2.38424056      20.61404434
O       -3.24945612      -2.83070127      33.70149768
H       -3.96121641      -2.23017266      34.04386423
H       -2.39569820      -2.58355380      34.30407699
O       -3.50497231      -0.38116466      31.56992820
H       -4.37179421      -0.56033184      31.96736676
H       -2.90795666      -1.17961970      31.66454815
O        3.07082130      -6.07540020      32.86591978
H        3.05282147      -6.45397130      31.96108697
H        3.95136209      -5.58165875      32.87389429
O       13.93877965      -0.54087234      23.30747435
H       13.83272018      -1.41443850      22.86945054
H       13.46079183       0.16814659      22.86160909
O       -1.61473133       7.72195831      27.22414880
H       -1.02072624       8.50674486      27.18936368
H       -2.19910613       7.90290913      28.00153177
O       -1.75730326       3.55390869      28.51354667
H       -1.88830104       3.68777898      29.50400597
H       -1.10192489       4.16490892      28.14080742
O        8.52128714       0.98809206      28.45558996
H        7.72023271       0.45924822      28.51419561
H        8.29367908       1.99773718      28.52896495
O       10.66518708       8.58177936      21.29552542
H       11.45792378       7.96701812      21.39738088
H        9.87926549       8.03872310      21.58761265
O        5.42348886      14.36949345      27.47850347
H        6.33698674      14.68401413      27.51740072
H        4.93480044      15.16434057      27.85178121
O        8.54721726       7.84887655      31.27738909
H        9.18145540       8.37925473      30.68758046
H        8.77681237       6.92346278      31.09741663
O        7.04874425      12.51934719      25.37041867
H        6.85600512      11.56171125      25.12416166
H        7.21377554      12.64631888      26.27843861
O        4.38274278       8.95812070      33.55926051
H        4.22516362       9.83143961      33.88524618
H        3.49162532       8.56717845      33.44832177
O       -4.67444700       5.12665113      32.17921065
H       -4.22792348       4.29050928      31.87579383
H       -4.05292175       5.68399125      32.70631244
O       -5.28187931       4.98394619      24.69628109
H       -4.44850784       5.46632642      24.94391817
H       -5.23373821       4.28658076      25.38114952
O       -5.51999775       6.28139835      29.64797173
H       -5.04265237       5.96218887      30.47843945
H       -5.29072420       7.20568913      29.51265864
O       -3.07151291       0.95527629      34.12018067
H       -3.80038705       1.58191018      34.39918898
H       -3.44130473       0.44134583      33.36168043
O       -2.88375725       7.20233901      24.75867540
H       -2.36454792       7.13948063      25.57992805
H       -2.25105621       6.74773781      24.11595975
O        2.12817535      -2.41885852      32.88608818
H        2.00834227      -2.07196874      31.99656564
H        1.37278595      -1.99786566      33.35267419
O        9.83528113       2.25539364      24.24581194
H        9.04945418       2.83190605      24.43578157
H        9.88145138       1.90303848      23.29811055
O        8.98917504       6.67813372      22.57029749
H        8.50050108       6.21034225      21.85106094
H        9.78157052       6.09619917      22.68239492
O       -0.37493554       5.49782803      30.97954462
H       -0.28949407       4.88324115      31.69573799
H        0.53982711       5.41591649      30.49348808
O        1.31155847       4.97686184      22.75002506
H        1.09635188       4.04005285      23.02741446
H        1.56768871       5.36723847      23.61553939
O        4.90944283      -0.22391999      20.00877457
H        4.21552299       0.28489668      20.48466625
H        5.09017617       0.19446248      19.17225672
O       12.29555113       5.94632878      25.32232339
H       12.25973259       5.05924566      25.79464521
H       13.24861472       5.99766872      25.03007211
O        1.95120042       3.11490004      26.00446566
H        1.18342923       2.60157389      25.65607807
H        2.48385160       2.50354993      26.52055741
O       10.33227551       4.17603388      33.41558372
H       11.24831478       4.40278594      33.19168758
H       10.08767926       4.86944934      34.06312600
