48
Lattice="7.822299999999999 0.0 0.0 0.0 7.822299999999999 0.0 0.0 0.0 7.822299999999999" Properties=species:S:1:pos:R:3 ipi_comment="Step:       10000  Bead:       0 positions{ase}  cell{ase}" pbc="T T T"
O        4.18362416       5.27234196       6.85142468
H        4.60394963       5.00706375       7.75013132
H        4.92393368       4.91260967       6.28063305
O        4.54323965       2.00448465       4.30496640
H        4.10272711       1.84441652       5.20932206
H        3.77718461       2.01907332       3.66839862
O        5.26950099       4.23830466       1.35689285
H        6.20520551       4.11920642       1.06595235
H        5.30530697       4.88144706       2.13867739
O        2.84157036       1.44647580       6.55554506
H        3.47704058       1.26949544       7.24618406
H        2.52924036       0.55810762       6.37460895
O        4.73167709       8.33567415       8.88948069
H        4.17123623       7.56910369       8.83206414
H        4.53108009       8.72837964       9.73074300
O        2.77703407       2.54198829       2.08912274
H        2.48111398       3.28527413       2.65137495
H        3.37561820       3.07491486       1.54329103
O        2.50417259       5.12696509       3.26235927
H        1.94435940       5.09756659       4.08739612
H        2.18678593       5.89091849       2.72990999
O        0.83959437      -0.46167634       5.79210086
H        0.38968124      -0.16697113       6.61032231
H        0.17024857      -0.29653185       5.10597590
O        7.31315812       0.25205541       3.44629281
H        6.41393001       0.66516087       3.35785212
H        7.68675209       0.15742411       2.59176391
O        4.98506765       6.09454440       3.46751235
H        5.57400926       5.66495900       4.12667572
H        4.04594012       5.72353030       3.69410810
O        7.50550358       0.51929740       0.41108123
H        7.48220494       1.51756316       0.29093294
H        6.54951427       0.36767493       0.68299587
O        1.60684000       4.86892609       6.37446096
H        2.55570953       5.09683384       6.59262440
H        1.15808496       5.73782842       6.06560718
O        1.93564933      -0.26453458       1.58980351
H        1.24940227      -0.12553735       0.91438774
H        2.15606496       0.59447030       2.03069892
O        1.14906257       2.81562231       4.38043369
H        1.64749566       3.03523276       5.22182284
H        0.91548248       1.89172246       4.50805838
O        6.37045116       3.86634534       5.42314718
H        7.24241684       3.76535247       4.99243809
H        5.78863228       3.23634701       4.92636355
O        7.78437577       3.28745968       8.05729434
H        8.32145370       3.68183244       7.38138943
H        8.34879185       3.50721405       8.79903349
