144
Lattice="10.0 0.0 0.0 0.0 10.0 0.0 0.0 0.0 100.0" Properties=species:S:1:pos:R:3 ipi_comment="Step:           0  Bead:       0 positions{ase}  cell{ase}" pbc="T T T"
  O          7.213349        1.186577       21.717560
  H          6.561465        0.863773       21.096735
  H          7.048078        0.668442       22.529954
  O          6.918162        5.803875       20.938485
  H          6.333338        6.316843       21.550931
  H          6.728346        5.011932       21.427283
  O          0.405353        1.194563       30.621485
  H         -0.281441        1.381404       31.346061
  H         -0.195058        1.142042       29.781480
  O          0.184506        5.004879       27.290283
  H          0.854238        5.093728       28.032607
  H         -0.184149        5.914008       27.164427
  O          3.607604        4.232469       20.609379
  H          2.889723        4.421620       21.181710
  H          4.408910        4.057039       21.123651
  O          6.125157        8.625397       28.774738
  H          5.662231        9.149983       28.039143
  H          6.071764        9.149009       29.623068
  O          1.905289        5.287363       29.480460
  H          2.581347        5.988010       29.659648
  H          2.428678        4.469003       29.714270
  O          5.912916        3.587253       22.362486
  H          6.060778        3.518680       23.346274
  H          6.476360        2.844829       22.134379
  O          6.437441        0.081065       24.281234
  H          6.875164       -0.761333       24.412911
  H          5.529141       -0.163603       23.921947
  O          9.666703        0.204704       26.029514
  H          9.367449        0.688861       26.810445
  H          9.802380        0.970439       25.393634
  O          3.746889        1.750977       34.548228
  H          3.451770        2.499307       33.909028
  H          3.465119        2.099294       35.427751
  O          4.604332        9.904105       26.780132
  H          3.894789        9.341889       26.426991
  H          5.101949       10.290778       26.013242
  O          2.453424        8.605000       26.747294
  H          2.185087        7.694240       26.328001
  H          1.570490        9.070782       26.623041
  O          4.639244        1.979208       28.735664
  H          4.971342        2.719018       28.212539
  H          4.535323        1.192021       28.090417
  O          0.235883        1.282643       21.861486
  H         -0.605813        1.409775       21.417431
  H          0.463707        0.332935       21.624008
  O          4.029994        7.324410       21.182205
  H          4.216905        7.928950       20.418650
  H          3.954050        6.463523       20.707131
  O          6.643348        3.041024       31.081388
  H          7.381370        2.539691       31.614633
  H          6.206373        2.188518       30.893380
  O          2.759532        2.725201       30.508565
  H          1.910622        2.185580       30.469731
  H          3.380199        2.384843       29.857827
  O          1.988517        9.130483       30.498211
  H          1.278239        9.872649       30.623375
  H          2.295595        9.119304       29.544647
  O          8.650739        2.091710       32.657619
  H          8.112856        1.810981       33.405880
  H          9.297433        2.788921       32.874998
  O          9.481676        8.347575       33.896946
  H          9.287924        9.328429       33.944863
  H          9.129481        8.194207       32.984871
  O          2.894121        1.431375       20.950617
  H          1.938076        1.339699       21.180943
  H          3.056229        2.384241       20.614044
  O          6.750544        7.169299       33.701498
  H          6.038784        7.769827       34.043864
  H          7.604302        7.416446       34.304077
  O          6.495028        9.618835       31.569928
  H          5.628206        9.439668       31.967367
  H          7.092043        8.820380       31.664548
  O          3.070821        3.924600       32.865920
  H          3.052821        3.546029       31.961087
  H          3.951362        4.418341       32.873894
  O          3.938780        9.459128       23.307474
  H          3.832720        8.585561       22.869451
  H          3.460792       10.168147       22.861609
  O          8.385269        7.721958       27.224149
  H          8.979274        8.506745       27.189364
  H          7.800894        7.902909       28.001532
  O          8.242697        3.553909       28.513547
  H          8.111699        3.687779       29.504006
  H          8.898075        4.164909       28.140807
  O          8.521287        0.988092       28.455590
  H          7.720233        0.459248       28.514196
  H          8.293679        1.997737       28.528965
  O          0.665187        8.581779       21.295525
  H          1.457924        7.967018       21.397381
  H         -0.120735        8.038723       21.587613
  O          5.423489        4.369493       27.478503
  H          6.336987        4.684014       27.517401
  H          4.934800        5.164341       27.851781
  O          8.547217        7.848877       31.277389
  H          9.181455        8.379255       30.687580
  H          8.776812        6.923463       31.097417
  O          7.048744        2.519347       25.370419
  H          6.856005        1.561711       25.124162
  H          7.213776        2.646319       26.278439
  O          4.382743        8.958121       33.559261
  H          4.225164        9.831440       33.885246
  H          3.491625        8.567178       33.448322
  O          5.325553        5.126651       32.179211
  H          5.772077        4.290509       31.875794
  H          5.947078        5.683991       32.706312
  O          4.718121        4.983946       24.696281
  H          5.551492        5.466326       24.943918
  H          4.766262        4.286581       25.381150
  O          4.480002        6.281398       29.647972
  H          4.957348        5.962189       30.478439
  H          4.709276        7.205689       29.512659
  O          6.928487        0.955276       34.120181
  H          6.199613        1.581910       34.399189
  H          6.558695        0.441346       33.361680
  O          7.116243        7.202339       24.758675
  H          7.635452        7.139481       25.579928
  H          7.748944        6.747738       24.115960
  O          2.128175        7.581141       32.886088
  H          2.008342        7.928031       31.996566
  H          1.372786        8.002134       33.352674
  O          9.835281        2.255394       24.245812
  H          9.049454        2.831906       24.435782
  H          9.881451        1.903038       23.298111
  O          8.989175        6.678134       22.570297
  H          8.500501        6.210342       21.851061
  H          9.781571        6.096199       22.682395
  O          9.625064        5.497828       30.979545
  H          9.710506        4.883241       31.695738
  H         10.539827        5.415916       30.493488
  O          1.311558        4.976862       22.750025
  H          1.096352        4.040053       23.027414
  H          1.567689        5.367238       23.615539
  O          4.909443        9.776080       20.008775
  H          4.215523       10.284897       20.484666
  H          5.090176       10.194462       19.172257
  O          2.295551        5.946329       25.322323
  H          2.259733        5.059246       25.794645
  H          3.248615        5.997669       25.030072
  O          1.951200        3.114900       26.004466
  H          1.183429        2.601574       25.656078
  H          2.483852        2.503550       26.520557
  O          0.332276        4.176034       33.415584
  H          1.248315        4.402786       33.191688
  H          0.087679        4.869449       34.063126
